NAME : si535.13502.tour
COMMENT : Length = 13502
COMMENT : Found by LKH [Keld Helsgaun] Sat May 25 06:43:26 2013
TYPE : TOUR
DIMENSION : 107
TOUR_SECTION
1
9
21
136
510
525
535
213
288
338
138
143
145
172
149
309
273
210
30
529
28
508
477
11
29
455
471
495
40
15
16
184
186
44
50
51
61
66
89
92
106
110
114
117
125
128
130
127
193
126
266
268
356
293
294
303
346
156
157
177
178
179
168
170
163
165
135
475
20
386
8
359
358
398
401
393
391
388
384
361
6
180
181
5
372
376
3
369
377
422
418
441
450
480
499
513
523
256
290
287
515
491
457
445
421
371
367
-1
EOF
